 &CONTROL
    calculation  = 'bands'
    restart_mode = 'from_scratch'
    outdir       = './'
    pseudo_dir   = './'
    prefix       = 'GaAs'
 /
 &SYSTEM
    ibrav    = 2
    a        = 5.654
    nat      = 2
    ntyp     = 2
    ecutwfc  = 20
    noncolin = .false.
    lspinorb = .false.
    nbnd     = 26
 /
 &ELECTRONS
    conv_thr = 1.0D-10
 /
ATOMIC_SPECIES
   Ga     234.00000  Ga.upf
   As     123.00000  As.upf
ATOMIC_POSITIONS {crystal}
Ga       0.00        0.00        0.00
As       0.25        0.25        0.25

K_POINTS {crystal_b}
5
0.50000  0.50000 0.5000  20 # L 
0.00000  0.00000 0.0000  20 # G 
0.50000 -0.50000 0.0000  6 # X 
0.37500 -0.37500 0.0000  20 # K 
0.00000  0.00000 0.0000  20 # G 