&bands
  prefix = 'GaAs'
  outdir = './'
  lsym = .false.  
  filband = 'GaAs.bands_pw.dat'
/
