&CONTROL
    calculation  = 'scf'
    restart_mode = 'from_scratch'
    outdir       = './'
    pseudo_dir   = './'
    prefix       = 'GaAs'
/
 &SYSTEM
    ibrav    = 2
    a        = 5.654
    nat      = 2
    ntyp     = 2
    ecutwfc  = 20
    noncolin = .false.
    lspinorb = .false.
 /
 &ELECTRONS
    conv_thr = 1.0D-10
 /
 &electrons
    diagonalization='david'
    mixing_mode = 'plain'
    mixing_beta = 0.7 
    conv_thr =  1.0d-13
 /
A
ATOMIC_SPECIES
   Ga     234.00000  Ga.upf
   As     123.00000  As.upf
ATOMIC_POSITIONS {crystal}
Ga       0.00        0.00        0.00
As       0.25        0.25        0.25
K_POINTS {automatic}
8 8 8  0  0  0

